BAYES
10
2 2 2 2 2 2 2 2 2 2
2
5 0 1 2 3 4
5 5 6 7 8 9

32
 0.424 0.568 0.552 0.663 0.424 0.568 0.552 0.663 0.424 0.568 0.552 0.663 0.424 0.568 0.552 0.663
 0.345 0.287 0.972 0.523 0.424 0.568 0.552 0.663 0.424 0.568 0.552 0.663 0.424 0.568 0.552 0.663
32
 0.424 0.568 0.552 0.663 0.424 0.568 0.552 0.663 0.424 0.568 0.552 0.663 0.424 0.568 0.552 0.663
 0.345 0.287 0.972 0.523 0.424 0.568 0.552 0.663 0.424 0.568 0.552 0.663 0.424 0.568 0.552 0.663